NAME : pairopt.-195208.tour
COMMENT : Length = -195208
COMMENT : Found by LKH-3 [Keld Helsgaun] Tue Aug 29 11:06:57 2023
TYPE : TOUR
DIMENSION : 17
TOUR_SECTION
1
3
14
12
8
6
4
5
7
17
2
15
16
13
11
10
9
-1
EOF
